Maximize
  200 x_color_printers + 70 x_black_and_white_printers
Subject To
  c1: x_color_printers <= 20
  c2: x_black_and_white_printers <= 30
  c3: x_color_printers + x_black_and_white_printers <= 35
End